100
32
19
23
29
26
23
1
20
1
24
14
18
16
15
29
9
3
21
13
31
19
6
20
27
18
18
13
27
31
5
24
22
22
24
29
9
19
15
17
21
21
24
25
5
24
23
24
3
26
24
9
15
15
23
8
8
25
25
9
21
24
24
5
26
16
1
17
31
26
21
15
22
10
18
9
30
23
31
4
18
20
23
6
20
29
22
5
21
18
7
15
28
17
4
5
4
32
25
3
20
31